38 1000
9 149
3 126
4 151
2 165
10 149
11 126
2 157
3 114
2 151
9 140
2 140
9 184
11 166
8 200
2 151
9 158
7 136
4 136
3 129
10 123
4 114
3 197
7 184
7 197
10 190
11 112
6 151
11 158
10 166
5 157
8 190
3 165
7 123
10 112
5 103
8 103
8 129
3 200
